unsat
(:SPACER-cluster-out-of-gas           1343
 :SPACER-concretize                   60
 :SPACER-conj                         282
 :SPACER-expand-pob-undef             1
 :SPACER-inductive-gen                810
 :SPACER-inductive-gen-weaken-fail    818
 :SPACER-inductive-gen-weaken-success 4
 :SPACER-inductive-level              151
 :SPACER-max-depth                    151
 :SPACER-max-query-lvl                151
 :SPACER-non-local-gen                2513
 :SPACER-num-active-lemmas            209
 :SPACER-num-cant-abstract            5
 :SPACER-num-ctp-blocked              9886
 :SPACER-num-invariants               82
 :SPACER-num-is_invariant             39875
 :SPACER-num-lemma-jumped             494
 :SPACER-num-lemmas                   2457
 :SPACER-num-non-lin                  13
 :SPACER-num-pobs                     1020
 :SPACER-num-propagations             27078
 :SPACER-num-queries                  1370
 :SPACER-num-reach-queries            12
 :SPACER-num-reuse-reach-facts        7
 :SPACER-pob-out-of-gas               3
 :SPACER-subsume-failed               26
 :SPACER-subsume-pob                  422
 :SPACER-subsume-success              1185
 :added-eqs                           104032
 :arith-assert-diseq                  1053748
 :arith-assert-lower                  4933426
 :arith-assert-upper                  3130344
 :arith-bound-prop                    9272
 :arith-branch-var                    4
 :arith-conflicts                     856
 :arith-eq-adapter                    13208
 :arith-fixed-eqs                     13244
 :arith-gcd-tests                     96
 :arith-gomory-cuts                   2
 :arith-ineq-splits                   4
 :arith-num-rows                      108
 :arith-offset-eqs                    10708
 :arith-patches                       10
 :arith-patches_succ                  4
 :arith-pivots                        7972
 :arith-row-summations                64190
 :arith-tableau-max-columns           310
 :arith-tableau-max-rows              108
 :conflicts                           76318
 :decisions                           3436668
 :del-clause                          88922
 :final-checks                        9734
 :iuc_solver.num_proxies              808
 :max-memory                          589.67
 :memory                              541.52
 :minimized-lits                      986
 :mk-bool-var                         141160
 :mk-clause                           216996
 :num-allocs                          6168658767899.00
 :num-checks                          77664
 :pool_solver.checks                  38832
 :pool_solver.checks.sat              2607
 :pool_solver.checks.undef            2257
 :propagations                        24970804
 :rlimit-count                        59764019
 :time                                247.33
 :time.iuc_solver.get_iuc             5.15
 :time.iuc_solver.get_iuc.hyp_reduce1 1.25
 :time.iuc_solver.get_iuc.hyp_reduce2 2.76
 :time.iuc_solver.get_iuc.learn_core  0.57
 :time.pool_solver.proof              1.03
 :time.pool_solver.smt.total          220.69
 :time.pool_solver.smt.total.sat      31.26
 :time.pool_solver.smt.total.undef    92.92
 :time.spacer.ctp                     1.97
 :time.spacer.init_rules              0.00
 :time.spacer.mbp                     0.38
 :time.spacer.solve                   247.15
 :time.spacer.solve.propagate         159.10
 :time.spacer.solve.reach             88.05
 :time.spacer.solve.reach.children    2.23
 :time.spacer.solve.reach.cluster     4.32
 :time.spacer.solve.reach.gen.global  5.72
 :time.spacer.solve.reach.gen.ind     2.61
 :time.spacer.solve.reach.is-reach    1.13)
(:max-memory   589.67
 :memory       541.52
 :num-allocs   6168658767899.00
 :rlimit-count 59764019
 :time         247.33
 :total-time   247.34)
